% seed = 0

mint = 49;
% maxt = 252;

nActs = 92;
dur = [0,4,2,2,1,5,1,1,6,4,1,1,3,2,2,1,2,2,2,2,4,4,3,2,3,2,7,3,2,2,2,2,2,2,2,3,2,3,6,4,2,1,3,3,6,1,2,4,2,2,3,3,3,5,4,2,3,3,2,3,4,7,3,2,1,3,3,3,2,3,3,2,1,2,3,4,3,4,3,4,1,2,2,2,6,3,4,5,3,1,2,0];

nSkills = 12;
sreq = [| 0,0,0,0,0,0,0,0,0,0,0,0,
	| 0,1,0,0,0,1,1,0,1,0,0,0,
	| 0,0,0,0,0,0,1,0,0,1,0,0,
	| 0,0,0,0,0,1,0,0,0,1,0,1,
	| 1,0,0,0,0,0,0,1,1,0,0,0,
	| 0,0,0,0,0,0,0,0,0,0,1,0,
	| 0,0,0,0,0,0,0,0,0,0,1,0,
	| 0,0,1,0,0,1,0,0,0,0,0,0,
	| 0,1,0,0,0,1,0,0,0,0,1,1,
	| 0,0,0,0,0,0,1,0,0,0,1,0,
	| 0,0,0,0,1,1,0,0,0,1,1,0,
	| 0,0,0,0,0,0,0,0,0,0,1,0,
	| 0,0,0,0,0,1,0,0,1,0,2,0,
	| 0,0,0,0,0,2,0,0,1,0,0,0,
	| 0,0,2,0,0,1,1,0,0,0,0,0,
	| 0,0,0,0,0,0,0,0,0,1,0,1,
	| 0,0,0,0,0,1,0,0,0,0,0,1,
	| 0,0,1,0,0,1,0,0,0,0,1,1,
	| 0,0,0,0,0,0,0,0,0,0,0,1,
	| 0,0,0,0,0,0,0,0,2,1,0,0,
	| 0,0,0,0,0,1,0,0,1,0,1,0,
	| 0,0,0,0,1,0,0,0,0,0,0,0,
	| 0,1,0,0,0,0,0,0,0,0,0,0,
	| 0,0,0,0,1,1,0,0,0,0,1,1,
	| 0,0,0,0,0,0,0,0,1,0,0,0,
	| 0,0,0,0,0,1,1,0,1,0,0,0,
	| 0,0,0,0,1,0,0,0,0,0,1,0,
	| 0,0,0,0,0,1,0,0,1,0,0,1,
	| 0,0,0,1,0,0,0,0,1,1,1,0,
	| 0,0,0,0,0,0,0,0,1,0,0,0,
	| 0,0,0,0,0,1,0,0,0,0,0,0,
	| 0,0,0,0,0,0,0,0,0,0,1,0,
	| 0,0,0,0,0,0,0,0,1,0,0,0,
	| 0,1,0,0,0,0,0,0,1,0,1,0,
	| 0,0,0,0,0,0,0,0,1,0,0,0,
	| 0,0,0,0,0,0,0,0,1,2,0,1,
	| 0,0,0,0,0,2,0,0,1,0,1,0,
	| 0,0,0,0,1,0,0,0,0,0,0,0,
	| 0,0,0,0,0,1,0,0,1,0,0,0,
	| 0,0,0,0,0,1,0,0,0,1,1,1,
	| 0,0,0,1,0,1,0,0,1,0,0,1,
	| 0,0,0,0,0,0,0,0,2,0,0,0,
	| 0,0,0,0,0,0,0,0,2,0,0,0,
	| 0,0,0,0,1,1,0,1,0,0,1,0,
	| 0,0,0,0,0,1,0,0,0,0,0,1,
	| 0,0,0,0,1,0,0,0,1,0,0,1,
	| 0,0,0,0,0,0,0,0,0,0,2,1,
	| 0,0,0,0,0,0,0,0,1,0,0,1,
	| 0,0,1,0,0,0,0,1,1,0,0,0,
	| 0,0,0,1,0,1,0,0,0,0,0,0,
	| 0,0,0,0,0,0,0,0,1,0,1,0,
	| 0,0,0,0,0,0,1,0,1,0,1,1,
	| 0,0,0,1,0,0,0,0,0,0,1,0,
	| 0,0,1,0,0,0,0,1,0,0,0,0,
	| 0,0,1,0,0,0,0,0,1,0,1,0,
	| 0,1,0,0,0,0,0,0,0,0,0,0,
	| 0,0,0,0,0,0,1,0,0,0,0,0,
	| 0,0,0,0,0,0,0,0,0,1,0,0,
	| 0,0,0,0,0,0,0,0,1,0,1,0,
	| 0,0,1,0,0,0,0,0,0,0,1,0,
	| 0,1,0,0,0,1,0,1,0,0,0,0,
	| 0,0,0,0,0,0,0,1,1,0,1,1,
	| 0,0,0,1,0,2,0,0,0,0,0,1,
	| 0,0,1,0,0,1,0,0,1,0,1,0,
	| 0,0,0,0,0,0,0,0,0,0,2,0,
	| 0,0,0,0,0,0,0,0,1,1,0,0,
	| 0,0,0,0,0,0,0,2,0,0,1,0,
	| 0,0,0,0,0,0,0,0,1,0,1,0,
	| 0,0,0,0,0,0,0,1,0,0,1,0,
	| 0,0,0,0,0,0,0,0,0,0,1,0,
	| 0,0,0,0,0,1,0,0,0,0,0,0,
	| 0,0,0,0,0,0,1,0,0,0,1,1,
	| 0,0,0,0,0,0,0,0,0,0,1,0,
	| 0,0,0,0,0,0,0,1,0,0,0,0,
	| 0,0,0,0,0,0,0,0,2,0,1,0,
	| 0,1,0,0,0,0,0,0,0,0,0,0,
	| 0,0,1,0,0,0,0,0,0,0,0,1,
	| 0,0,0,0,0,0,0,0,2,1,1,0,
	| 0,0,0,0,1,0,0,1,1,0,0,0,
	| 0,0,0,0,0,0,0,0,1,0,0,0,
	| 0,0,0,0,0,0,0,1,1,0,1,0,
	| 0,0,0,0,0,0,1,0,0,1,0,0,
	| 0,0,0,0,0,0,0,0,1,0,0,0,
	| 0,0,0,0,0,0,0,0,1,1,1,0,
	| 0,0,0,0,0,0,0,0,0,0,2,0,
	| 0,0,1,0,0,0,0,0,1,0,0,1,
	| 0,0,0,0,0,2,0,0,0,0,2,0,
	| 0,0,0,0,0,0,0,0,0,0,1,0,
	| 1,0,0,0,0,2,0,0,1,0,0,0,
	| 0,2,0,0,0,1,0,0,0,0,1,0,
	| 0,0,1,0,0,0,1,0,1,0,0,0,
	| 0,0,0,0,0,0,0,0,0,0,0,0, |];

% SumOfsreq = 219;

nResources = 14;
mastery = [| false,false,false,false,false,false,true,true,true,false,false,true,
	| true,true,true,false,false,true,false,false,false,true,true,true,
	| false,false,false,false,false,false,false,false,false,false,false,true,
	| false,true,true,false,false,false,false,false,false,false,false,true,
	| false,false,false,false,false,false,false,false,false,false,true,true,
	| false,false,false,false,false,false,false,false,true,false,false,false,
	| false,false,false,false,true,true,false,false,true,false,false,false,
	| false,true,true,false,false,false,true,true,true,true,true,true,
	| false,false,false,false,false,false,false,false,true,false,true,true,
	| false,false,false,false,true,true,true,true,true,false,true,true,
	| false,false,false,true,true,true,false,false,false,false,false,false,
	| false,false,false,false,false,false,false,false,false,true,true,true,
	| false,false,false,false,false,true,false,false,false,false,false,false,
	| false,false,false,false,false,false,false,true,true,false,false,false, |];

nPrecs = 194;
pred = [1,1,1,2,2,2,3,3,3,4,4,4,5,5,5,6,6,6,7,7,7,8,8,9,9,9,10,10,10,11,11,11,12,12,12,13,13,13,14,14,14,15,16,16,16,17,17,18,18,19,19,20,21,21,22,22,22,23,23,23,24,24,24,25,25,25,26,26,26,27,27,27,28,28,28,29,29,29,30,30,30,31,32,33,33,33,34,34,34,35,35,36,36,36,37,37,38,38,39,39,39,40,40,40,41,42,42,42,43,43,43,44,44,45,45,45,46,46,46,47,47,48,48,48,49,49,50,50,50,51,51,52,52,52,53,53,53,54,55,55,55,56,57,58,58,59,60,61,61,62,62,63,64,64,65,66,66,67,68,68,68,69,70,70,71,71,72,72,73,73,74,75,76,77,77,77,78,78,79,79,80,80,81,82,83,84,85,86,86,87,88,89,90,91];
succ = [2,3,4,9,12,6,65,5,15,42,7,8,67,75,24,45,13,61,10,27,14,26,31,18,11,24,58,21,31,28,30,32,19,47,64,65,20,16,21,39,48,60,17,29,22,74,53,61,48,25,59,37,34,43,76,36,23,55,31,40,60,69,55,73,89,62,33,38,47,34,35,59,85,45,88,44,30,48,41,53,72,46,52,49,37,39,41,66,75,49,57,52,47,40,66,43,58,39,50,63,64,62,87,56,56,58,68,61,52,44,46,50,64,57,54,63,69,78,72,49,54,82,60,71,62,79,51,53,67,76,55,68,70,56,59,54,71,91,57,73,68,82,86,67,75,84,66,70,78,90,63,69,73,74,70,77,79,71,77,79,72,82,89,74,83,76,85,80,87,80,80,78,77,81,84,85,81,83,83,87,81,84,88,91,86,88,86,89,90,91,90,92,92,92];

nUnrels = 2261;
unpred = [2,2,2,2,2,2,2,2,2,2,2,2,2,2,2,2,2,2,2,3,3,3,3,3,3,3,3,3,3,3,3,3,3,3,3,3,3,3,3,3,3,3,3,3,3,3,3,3,3,3,3,3,3,3,3,3,3,3,3,3,3,3,3,3,3,3,3,3,3,3,3,3,3,3,4,4,4,4,4,4,4,4,4,4,4,4,4,4,4,4,4,4,4,4,4,4,4,4,5,5,5,5,5,5,5,5,5,5,5,5,5,5,5,5,5,5,5,5,5,5,5,5,5,5,5,5,5,5,5,5,5,5,5,5,5,5,5,5,5,5,5,5,5,5,5,5,5,5,5,5,5,5,5,5,5,5,6,6,6,6,6,6,6,6,6,6,6,6,6,6,6,6,6,6,6,6,6,6,6,6,6,7,7,7,7,7,7,7,7,7,7,7,7,7,7,7,7,7,7,7,7,7,7,7,7,7,7,7,7,7,7,8,8,8,8,8,8,8,8,8,8,8,8,8,8,8,8,8,8,8,8,8,8,8,8,8,8,8,8,8,8,8,8,8,9,9,9,9,9,9,9,9,9,9,9,9,9,9,9,9,9,9,9,9,9,9,9,9,9,9,9,9,9,9,9,9,9,9,9,9,9,9,9,10,10,10,10,10,10,10,10,10,10,10,10,10,10,10,10,10,10,10,10,10,10,10,10,10,10,10,10,10,10,10,10,10,10,10,10,10,11,11,11,11,11,11,11,11,11,11,11,11,11,11,11,11,11,11,11,11,11,11,11,11,11,11,11,11,11,11,11,11,11,11,11,11,11,11,11,11,11,11,11,11,11,11,11,12,12,12,12,12,12,12,12,12,12,12,12,12,12,12,12,12,12,12,12,12,12,12,12,12,12,12,12,12,12,12,12,12,12,12,12,12,12,12,12,12,12,12,12,12,12,12,12,12,12,12,12,12,12,12,13,13,13,13,13,13,13,13,13,13,13,13,13,13,13,13,13,13,13,13,13,14,14,14,14,14,14,14,14,14,14,14,14,14,14,14,14,14,14,14,14,14,14,14,14,14,14,14,14,14,14,14,15,15,15,15,15,15,15,15,15,15,15,15,15,15,15,15,15,15,15,15,15,15,15,15,15,15,15,15,15,15,15,15,15,15,15,15,15,15,15,15,15,15,15,15,15,15,15,15,15,15,15,15,15,15,15,15,15,15,15,15,15,15,16,16,16,16,16,16,16,16,16,16,16,16,16,16,16,16,16,16,16,16,16,16,16,17,17,17,17,17,17,17,17,17,17,17,17,17,17,17,17,17,17,17,17,17,17,17,17,17,17,17,17,17,17,17,17,17,17,17,17,17,17,17,17,17,17,17,17,17,17,17,17,17,17,17,17,17,17,17,17,17,18,18,18,18,18,18,18,18,18,18,18,18,18,18,18,18,18,18,18,18,18,18,18,18,18,18,18,18,18,18,18,18,18,18,18,18,18,18,18,18,18,18,18,18,18,18,18,18,18,18,19,19,19,19,19,19,19,19,19,19,19,19,19,19,19,19,19,19,19,19,19,19,19,19,19,19,19,19,19,19,19,19,19,19,19,19,19,19,19,19,19,19,19,19,19,19,19,19,19,19,19,19,19,19,19,19,19,20,20,20,20,20,20,20,20,20,20,20,20,20,20,20,20,20,20,20,20,20,20,20,20,20,20,20,20,20,20,20,20,21,21,21,21,21,21,21,21,21,21,21,21,21,21,21,21,21,21,21,21,21,21,21,21,21,21,21,21,21,22,22,22,22,22,22,22,22,22,22,22,22,22,22,22,22,22,22,22,22,22,22,22,22,22,22,22,22,22,22,22,22,22,23,23,23,23,23,23,23,23,23,23,23,23,23,23,23,23,23,23,23,23,23,23,23,23,23,23,23,23,23,23,23,23,23,23,23,23,23,23,23,23,23,24,24,24,24,24,24,24,24,24,24,24,24,24,24,24,24,24,24,24,24,24,24,24,24,24,24,24,24,24,24,24,24,24,24,24,24,24,24,24,24,24,24,24,24,24,25,25,25,25,25,25,25,25,25,25,25,25,25,25,25,25,25,25,25,25,25,25,25,25,25,25,25,25,25,25,25,25,25,25,25,25,25,25,25,25,25,25,25,25,25,25,25,25,25,25,25,25,25,26,26,26,26,26,26,26,26,26,26,26,26,26,26,26,26,26,27,27,27,27,27,27,27,27,27,27,27,27,27,27,27,27,27,27,27,27,27,27,27,27,27,27,27,27,27,27,27,27,27,27,27,27,27,27,28,28,28,28,28,28,28,28,28,28,28,28,28,28,28,28,28,28,28,28,28,28,28,28,28,28,28,28,28,28,28,28,28,28,28,28,28,28,28,28,28,28,28,28,28,28,28,28,28,28,28,29,29,29,29,29,29,29,29,29,29,29,29,29,29,29,29,29,29,29,29,29,29,29,29,29,29,30,30,30,30,30,30,30,30,30,30,30,30,30,30,30,30,30,30,30,30,30,30,30,30,30,30,30,30,30,30,30,30,30,30,30,30,30,30,30,30,30,31,31,31,31,31,31,31,31,31,31,31,31,31,31,31,31,31,31,31,31,31,31,31,31,31,31,31,31,31,31,31,31,31,31,31,31,31,31,31,31,31,31,31,31,31,32,32,32,32,32,32,32,32,32,32,32,32,32,32,32,32,32,32,32,32,32,32,32,32,32,32,32,32,32,32,32,32,32,32,32,32,32,32,32,33,33,33,33,33,33,33,33,33,33,33,33,33,33,33,34,34,34,34,34,34,34,34,34,34,34,34,34,34,34,34,34,34,34,34,34,34,34,34,34,34,34,34,34,34,34,34,34,34,34,34,34,34,34,35,35,35,35,35,35,35,35,35,35,35,35,35,35,35,35,35,35,35,35,35,35,35,35,35,35,35,35,35,35,35,35,35,35,35,35,35,35,35,35,35,35,35,36,36,36,36,36,36,36,36,36,36,36,36,36,36,36,36,36,36,36,36,36,36,36,36,36,36,36,36,37,37,37,37,37,37,37,37,37,37,37,37,37,37,37,37,38,38,38,38,38,38,38,38,38,38,38,38,38,38,38,38,38,38,39,39,39,39,39,39,39,39,39,39,39,39,39,39,39,39,39,39,39,39,39,40,40,40,40,40,40,40,40,40,40,40,40,40,40,40,40,40,40,40,40,40,40,40,40,40,40,40,40,40,40,40,40,40,40,40,40,40,40,40,40,40,40,40,41,41,41,41,41,41,41,41,41,41,41,41,41,41,41,41,41,41,41,41,41,41,41,41,41,41,41,41,41,41,41,41,41,41,41,41,41,41,41,41,41,41,41,41,41,41,41,42,42,42,42,42,42,42,42,42,42,42,42,42,42,42,42,42,42,42,42,42,42,42,42,42,43,43,43,43,43,43,43,43,43,43,43,43,44,44,44,44,44,44,44,44,44,44,44,44,44,44,44,44,44,44,44,45,45,45,45,45,45,45,45,45,45,45,45,45,45,45,45,45,45,45,45,45,45,45,45,45,45,45,45,45,45,45,45,45,45,45,45,45,46,46,46,46,46,46,46,46,46,46,46,46,46,46,46,46,46,46,46,46,46,46,46,46,46,46,46,46,46,46,46,47,47,47,47,47,47,47,47,47,47,47,47,47,47,47,47,47,47,47,47,47,47,47,47,47,47,47,47,47,47,47,48,48,48,48,48,48,48,48,48,48,48,48,48,48,48,48,48,48,48,48,48,48,48,48,48,48,49,49,49,49,49,49,49,49,49,49,49,49,49,49,49,49,49,49,49,49,49,49,49,49,49,49,49,49,49,49,49,50,50,50,50,50,50,50,50,50,50,50,50,50,50,50,50,51,51,51,51,51,51,51,51,51,51,51,51,51,51,51,51,51,51,51,51,51,52,52,52,52,52,52,52,52,52,52,52,52,52,52,52,52,52,52,52,52,53,53,53,53,53,53,53,53,53,53,53,53,53,53,53,53,53,53,53,53,53,53,53,53,54,54,54,54,54,54,54,54,54,54,54,54,54,54,54,54,54,54,54,54,54,54,54,54,54,54,54,54,54,54,54,54,54,54,54,54,55,55,55,55,55,55,55,55,55,55,55,55,55,55,55,55,55,55,55,56,56,56,56,56,56,56,56,56,56,56,56,56,56,56,56,56,56,56,56,56,56,56,56,56,56,56,56,56,56,56,56,56,57,57,57,57,57,57,57,57,57,57,57,57,57,57,57,57,57,57,57,57,57,57,57,57,57,57,57,57,57,57,57,58,58,58,58,58,58,58,58,58,58,58,58,58,58,58,58,58,58,58,59,59,59,59,59,59,59,59,59,59,59,59,59,59,59,59,59,59,59,59,59,59,59,59,59,59,59,59,59,60,60,60,60,60,60,60,60,60,60,60,60,60,60,60,60,60,60,61,61,61,61,61,61,61,61,61,61,61,61,61,61,61,61,61,61,61,62,62,62,62,62,62,62,62,62,62,62,62,62,62,62,62,62,62,62,62,62,62,62,62,63,63,63,63,63,63,63,63,63,63,63,63,63,63,63,63,63,63,63,63,63,63,63,63,63,64,64,64,64,64,64,64,64,64,64,64,64,64,64,64,64,64,64,65,65,65,65,65,65,65,65,65,65,65,65,65,65,65,65,65,65,66,66,66,66,66,66,66,66,66,66,66,66,66,67,67,67,67,67,67,67,67,67,67,67,67,67,68,68,68,68,68,68,68,68,68,69,69,69,69,69,69,69,69,69,69,69,69,69,69,69,69,69,69,69,69,70,70,70,70,70,70,70,70,70,70,70,70,70,70,71,71,71,71,71,71,71,71,71,71,72,72,72,72,72,72,72,72,72,72,72,73,73,73,73,73,73,73,73,73,73,73,74,74,74,74,74,74,74,74,74,74,74,74,75,75,75,75,75,75,75,75,75,76,76,76,76,76,76,76,77,77,77,77,77,77,77,78,78,78,78,78,78,78,79,79,79,79,79,79,80,80,80,80,80,80,80,81,81,81,81,81,81,81,81,82,82,82,82,82,82,82,82,83,83,83,83,83,84,84,84,84,84,85,85,85,86,86,86,87,87,87,88,88,89,89,90];
unsucc = [3,4,5,7,8,10,14,15,21,26,27,33,34,35,38,39,42,58,75,4,6,7,8,9,10,11,12,13,14,16,17,18,19,20,21,22,23,25,26,27,28,29,30,31,32,33,34,35,36,37,38,39,40,41,42,43,44,45,46,47,48,49,50,51,52,53,54,56,58,59,61,62,63,64,5,6,9,11,12,13,15,16,17,18,19,20,22,23,24,25,28,29,30,32,36,40,45,65,6,7,8,9,10,11,12,13,14,15,16,17,18,19,20,21,22,23,25,26,27,28,29,30,31,32,33,34,35,36,37,38,39,40,41,42,43,44,45,46,47,48,49,50,51,52,53,54,56,58,59,61,62,63,64,65,70,74,7,8,9,10,11,12,14,15,18,19,21,24,25,26,27,28,32,33,34,35,38,39,42,58,75,8,9,11,12,13,15,16,17,18,19,20,22,23,24,25,26,28,29,30,32,33,36,37,38,40,42,45,47,61,65,9,10,11,12,13,14,15,16,17,18,19,20,21,22,23,24,25,27,28,29,30,32,34,35,36,40,41,42,45,48,60,61,65,10,12,13,14,15,16,17,19,20,21,22,23,25,26,27,29,31,33,34,35,36,37,38,39,40,42,43,44,46,47,49,50,51,58,62,64,65,67,75,11,12,13,14,15,16,17,18,19,20,22,23,24,25,26,27,28,29,30,32,33,35,36,37,38,39,40,42,45,47,48,49,60,61,62,63,65,12,13,14,15,16,17,18,19,20,21,22,23,24,25,26,27,29,31,33,34,35,36,37,38,39,40,42,43,44,46,47,48,49,50,51,55,58,60,61,62,64,65,66,67,73,75,78,13,14,15,16,17,18,20,21,22,23,24,26,27,28,29,30,31,32,33,34,35,36,37,38,39,40,41,42,43,44,45,46,48,50,51,52,53,55,56,57,58,60,61,65,66,67,68,70,71,72,75,76,77,78,85,14,15,18,19,21,24,25,26,27,28,32,33,34,35,38,39,42,45,58,61,75,15,16,17,18,19,20,22,23,24,25,26,27,28,29,30,31,32,33,35,36,37,38,40,42,45,47,49,58,61,62,65,16,17,18,19,20,21,22,23,24,25,26,27,28,29,30,31,32,33,34,35,36,37,38,39,40,41,42,43,44,45,46,47,48,49,50,51,52,53,54,55,56,57,58,59,61,62,63,64,65,67,68,69,70,71,72,73,74,75,76,78,80,82,18,19,20,21,24,25,26,27,28,32,33,34,35,37,38,39,42,43,45,58,61,65,75,18,19,20,21,22,23,24,25,26,27,28,29,30,31,32,33,34,35,36,37,38,39,40,41,42,43,44,45,46,47,48,49,50,51,52,55,56,57,58,60,61,62,63,64,65,66,67,68,69,70,72,73,75,78,79,82,87,19,20,21,22,23,24,25,26,27,28,29,30,31,32,33,34,35,36,37,38,39,40,41,42,43,44,45,46,47,49,50,51,52,53,54,55,56,57,58,59,62,63,64,65,67,68,69,72,73,75,20,21,22,23,24,26,27,28,29,30,31,32,33,34,35,36,37,38,39,40,41,42,43,44,45,46,47,48,49,50,51,52,53,54,55,56,57,58,60,61,64,65,66,67,68,70,71,72,74,75,76,77,78,79,83,85,86,21,22,23,24,25,26,27,28,29,30,31,32,33,34,35,36,38,39,40,41,42,45,47,48,49,58,60,61,62,63,65,75,22,23,24,25,26,27,28,29,30,31,32,33,35,36,37,38,39,40,42,45,47,48,49,58,60,61,62,63,65,24,25,26,27,28,29,30,32,33,34,35,37,38,39,41,42,43,44,45,48,50,51,53,58,59,60,61,64,65,66,67,71,75,24,25,26,27,28,29,30,32,33,34,35,36,37,38,39,41,42,43,44,45,47,48,49,50,51,52,53,54,58,59,60,61,64,65,66,67,70,71,74,75,76,25,26,27,28,29,30,31,32,33,34,35,36,37,38,39,40,41,42,43,44,45,46,47,48,49,50,51,52,53,54,56,58,59,61,62,63,64,65,67,70,71,74,75,76,78,26,27,28,29,30,31,32,33,34,35,36,37,38,39,40,41,42,43,44,45,46,47,48,49,50,51,52,53,54,55,56,57,58,59,60,61,64,65,66,67,68,70,71,72,74,75,76,77,78,79,83,85,86,27,28,29,30,31,32,34,35,36,40,41,42,45,48,60,61,65,28,29,30,31,32,33,36,37,38,39,40,42,43,44,45,46,47,48,50,51,52,53,54,55,58,60,61,64,65,67,68,70,71,72,73,74,76,80,29,30,31,32,33,34,35,36,37,38,39,40,41,42,43,44,46,47,48,49,50,51,52,53,55,56,58,59,60,61,62,64,65,66,67,68,70,71,72,73,74,75,76,77,78,79,80,81,83,84,87,31,32,33,34,35,36,37,38,39,40,42,43,45,46,47,49,52,58,61,62,63,65,69,70,75,78,31,32,33,34,35,36,37,38,39,40,42,43,44,45,46,47,48,49,50,51,52,55,57,58,60,61,62,63,64,65,66,67,68,69,70,73,74,75,78,79,87,32,33,34,35,36,37,38,39,40,41,42,43,44,45,47,48,49,50,51,52,53,54,55,56,57,58,59,60,61,62,63,64,65,66,67,68,70,71,73,74,75,76,77,79,87,33,34,35,36,37,38,39,40,41,42,43,44,45,46,47,48,49,50,51,53,54,55,57,58,59,60,61,62,63,64,65,66,67,69,71,73,75,76,78,34,35,36,38,40,41,42,45,47,48,58,60,61,65,75,35,36,37,38,39,40,42,43,44,45,46,47,48,49,50,51,52,53,54,55,57,58,59,60,61,62,63,64,65,67,68,69,70,71,72,73,74,76,80,36,37,38,39,40,41,42,43,44,45,46,47,48,50,51,52,53,54,55,56,58,59,60,61,64,65,66,67,68,70,71,72,73,74,75,76,77,78,80,81,84,85,88,37,38,39,41,42,43,44,45,46,48,50,51,53,55,57,58,59,60,61,64,65,66,67,71,73,75,76,78,38,39,40,41,42,45,47,48,49,58,60,61,62,63,65,75,40,41,42,43,44,45,46,47,48,49,52,56,60,61,62,65,66,70,40,41,42,43,44,45,46,47,48,49,52,56,58,60,61,62,65,66,70,75,78,41,42,43,44,45,46,47,48,49,50,51,52,53,54,55,57,58,59,60,61,64,65,66,67,68,70,71,72,73,74,75,76,77,78,79,80,81,83,84,85,86,88,89,42,43,44,45,46,47,48,49,50,51,52,53,54,55,57,58,59,60,61,62,63,64,65,66,67,68,69,70,71,72,73,74,75,76,77,78,79,80,81,83,84,85,86,87,88,89,90,43,44,45,46,47,48,49,50,51,52,53,54,55,56,57,59,60,62,63,64,65,66,69,73,82,45,47,48,49,58,60,61,62,63,65,66,75,45,46,47,48,49,52,56,58,60,61,62,63,65,66,69,70,75,78,82,46,47,48,49,50,51,52,53,55,56,58,59,60,61,62,64,65,66,67,68,70,71,72,73,74,75,76,77,78,79,80,81,83,84,85,87,88,47,48,49,50,51,52,53,54,55,56,57,58,59,60,61,62,63,64,65,66,67,68,70,71,73,74,75,76,77,79,87,48,50,51,52,53,55,56,57,58,59,60,61,64,65,66,67,68,70,71,72,73,74,75,76,77,78,80,81,84,85,88,49,50,51,52,53,54,55,56,57,58,59,61,62,63,64,65,67,68,69,70,72,73,74,75,78,80,50,51,52,53,54,55,56,57,58,59,60,61,64,65,66,67,68,70,71,72,73,74,75,76,77,78,80,81,84,85,88,52,56,58,60,61,62,63,64,65,66,69,70,74,75,78,82,52,53,54,56,58,59,60,61,62,63,64,65,66,67,69,70,71,74,75,78,82,53,54,55,57,58,59,60,61,62,63,64,65,66,67,69,71,73,75,76,78,55,56,57,58,60,61,62,63,64,65,66,67,68,69,70,72,73,74,75,78,79,80,82,87,55,56,57,58,59,60,61,62,63,64,65,66,67,68,69,70,71,72,73,74,75,76,77,78,79,80,81,82,83,84,85,86,87,88,89,90,56,58,59,60,61,62,63,64,65,66,67,69,70,71,74,75,76,78,82,57,58,59,60,61,62,63,64,65,66,67,68,69,70,71,72,73,74,75,76,77,78,79,80,81,83,84,85,86,87,88,89,90,58,59,60,61,62,63,64,65,66,67,68,69,70,71,72,73,74,75,76,77,78,79,80,81,82,83,84,85,87,88,91,59,60,61,62,63,64,65,66,68,69,70,72,73,74,79,80,82,87,91,60,61,62,63,64,65,66,67,68,69,70,71,72,73,74,75,76,77,78,79,80,81,82,83,85,86,87,89,91,61,62,63,64,65,67,68,69,70,71,72,73,74,75,76,78,80,82,62,63,64,65,66,67,68,69,71,72,73,75,76,77,79,82,85,87,91,64,65,66,67,68,70,71,72,73,74,75,76,77,78,79,80,81,83,84,85,86,87,88,89,64,65,66,67,68,70,71,72,73,74,75,76,77,78,79,80,81,83,84,85,86,87,88,89,90,65,66,67,68,69,70,71,72,75,76,77,78,79,82,83,85,86,89,66,67,68,69,71,72,73,75,76,77,78,79,82,83,85,86,87,91,67,68,69,70,71,72,73,74,75,76,78,80,82,68,69,70,72,73,74,75,78,79,80,82,87,91,69,70,71,73,74,75,76,78,82,70,71,72,73,74,75,76,77,78,79,80,81,83,84,85,86,87,88,89,90,71,72,73,75,76,77,78,79,82,83,85,86,87,91,72,73,74,75,78,79,80,82,87,91,73,74,75,76,77,78,79,82,83,87,91,74,75,76,77,78,79,82,83,85,86,89,75,76,77,78,79,82,83,85,86,87,89,91,76,77,79,80,82,84,85,87,91,78,79,80,82,83,87,91,78,79,80,82,83,87,91,79,80,82,84,85,87,91,80,81,82,84,85,88,82,83,85,86,87,89,91,82,83,84,85,86,87,89,91,83,84,85,86,87,88,89,90,84,85,87,88,91,85,86,87,89,91,87,88,91,87,88,91,88,89,90,89,91,90,91,91];

USEFUL_RES = [{},
	{1,2,4,6,7,8,9,10,11,13,14},
	{1,2,8,10,12},
	{1,2,3,4,5,7,8,9,10,11,12,13},
	{1,2,6,7,8,9,10,14},
	{2,5,8,9,10,12},
	{2,5,8,9,10,12},
	{2,4,7,8,10,11,13},
	{1,2,3,4,5,7,8,9,10,11,12,13},
	{1,2,5,8,9,10,12},
	{2,5,7,8,9,10,11,12,13},
	{2,5,8,9,10,12},
	{1,2,5,6,7,8,9,10,11,12,13,14},
	{1,2,6,7,8,9,10,11,13,14},
	{1,2,4,7,8,10,11,13},
	{1,2,3,4,5,8,9,10,12},
	{1,2,3,4,5,7,8,9,10,11,12,13},
	{1,2,3,4,5,7,8,9,10,11,12,13},
	{1,2,3,4,5,8,9,10,12},
	{1,2,6,7,8,9,10,12,14},
	{1,2,5,6,7,8,9,10,11,12,13,14},
	{7,10,11},
	{2,4,8},
	{1,2,3,4,5,7,8,9,10,11,12,13},
	{1,6,7,8,9,10,14},
	{1,2,6,7,8,9,10,11,13,14},
	{2,5,7,8,9,10,11,12},
	{1,2,3,4,5,6,7,8,9,10,11,12,13,14},
	{1,2,5,6,7,8,9,10,11,12,14},
	{1,6,7,8,9,10,14},
	{2,7,10,11,13},
	{2,5,8,9,10,12},
	{1,6,7,8,9,10,14},
	{1,2,4,5,6,7,8,9,10,12,14},
	{1,6,7,8,9,10,14},
	{1,2,3,4,5,6,7,8,9,10,12,14},
	{1,2,5,6,7,8,9,10,11,12,13,14},
	{7,10,11},
	{1,2,6,7,8,9,10,11,13,14},
	{1,2,3,4,5,7,8,9,10,11,12,13},
	{1,2,3,4,5,6,7,8,9,10,11,12,13,14},
	{1,6,7,8,9,10,14},
	{1,6,7,8,9,10,14},
	{1,2,5,7,8,9,10,11,12,13,14},
	{1,2,3,4,5,7,8,9,10,11,12,13},
	{1,2,3,4,5,6,7,8,9,10,11,12,14},
	{1,2,3,4,5,8,9,10,12},
	{1,2,3,4,5,6,7,8,9,10,12,14},
	{1,2,4,6,7,8,9,10,14},
	{2,7,10,11,13},
	{1,2,5,6,7,8,9,10,12,14},
	{1,2,3,4,5,6,7,8,9,10,12,14},
	{2,5,8,9,10,11,12},
	{1,2,4,8,10,14},
	{1,2,4,5,6,7,8,9,10,12,14},
	{2,4,8},
	{1,8,10},
	{2,8,12},
	{1,2,5,6,7,8,9,10,12,14},
	{2,4,5,8,9,10,12},
	{1,2,4,7,8,10,11,13,14},
	{1,2,3,4,5,6,7,8,9,10,12,14},
	{1,2,3,4,5,7,8,9,10,11,12,13},
	{1,2,4,5,6,7,8,9,10,11,12,13,14},
	{2,5,8,9,10,12},
	{1,2,6,7,8,9,10,12,14},
	{1,2,5,8,9,10,12,14},
	{1,2,5,6,7,8,9,10,12,14},
	{1,2,5,8,9,10,12,14},
	{2,5,8,9,10,12},
	{2,7,10,11,13},
	{1,2,3,4,5,8,9,10,12},
	{2,5,8,9,10,12},
	{1,8,10,14},
	{1,2,5,6,7,8,9,10,12,14},
	{2,4,8},
	{1,2,3,4,5,8,9,10,12},
	{1,2,5,6,7,8,9,10,12,14},
	{1,6,7,8,9,10,11,14},
	{1,6,7,8,9,10,14},
	{1,2,5,6,7,8,9,10,12,14},
	{1,2,8,10,12},
	{1,6,7,8,9,10,14},
	{1,2,5,6,7,8,9,10,12,14},
	{2,5,8,9,10,12},
	{1,2,3,4,5,6,7,8,9,10,12,14},
	{2,5,7,8,9,10,11,12,13},
	{2,5,8,9,10,12},
	{1,2,6,7,8,9,10,11,13,14},
	{2,4,5,7,8,9,10,11,12,13},
	{1,2,4,6,7,8,9,10,14},
	{}];

POTENTIAL_ACT = [{2,3,4,5,9,10,13,14,15,16,17,18,19,20,21,24,25,26,28,29,30,33,34,35,36,37,39,40,41,42,43,44,45,46,47,48,49,51,52,54,55,57,59,61,62,63,64,66,67,68,69,72,74,75,77,78,79,80,81,82,83,84,86,89,91},
	{2,3,4,5,6,7,8,9,10,11,12,13,14,15,16,17,18,19,20,21,23,24,26,27,28,29,31,32,34,36,37,39,40,41,44,45,46,47,48,49,50,51,52,53,54,55,56,58,59,60,61,62,63,64,65,66,67,68,69,70,71,72,73,75,76,77,78,81,82,84,85,86,87,88,89,90,91},
	{4,9,16,17,18,19,24,28,36,40,41,45,46,47,48,52,62,63,72,77,86},
	{2,4,8,9,15,16,17,18,19,23,24,28,34,36,40,41,45,46,47,48,49,52,54,55,56,60,61,62,63,64,72,76,77,86,90,91},
	{4,6,7,9,10,11,12,13,16,17,18,19,21,24,27,28,29,32,34,36,37,40,41,44,45,46,47,48,51,52,53,55,59,60,62,63,64,65,67,68,69,70,72,73,75,77,78,81,84,85,86,87,88,90},
	{2,5,13,14,20,21,25,26,28,29,30,33,34,35,36,37,39,41,42,43,46,48,49,51,52,55,59,62,64,66,68,75,78,79,80,81,83,84,86,89,91},
	{2,4,5,8,9,11,13,14,15,17,18,20,21,22,24,25,26,27,28,29,30,31,33,34,35,36,37,38,39,40,41,42,43,44,45,46,48,49,50,51,52,55,59,61,62,63,64,66,68,71,75,78,79,80,81,83,84,86,87,89,90,91},
	{2,3,4,5,6,7,8,9,10,11,12,13,14,15,16,17,18,19,20,21,23,24,25,26,27,28,29,30,32,33,34,35,36,37,39,40,41,42,43,44,45,46,47,48,49,51,52,53,54,55,56,57,58,59,60,61,62,63,64,65,66,67,68,69,70,72,73,74,75,76,77,78,79,80,81,82,83,84,85,86,87,88,89,90,91},
	{2,4,5,6,7,9,10,11,12,13,14,16,17,18,19,20,21,24,25,26,27,28,29,30,32,33,34,35,36,37,39,40,41,42,43,44,45,46,47,48,49,51,52,53,55,59,60,62,63,64,65,66,67,68,69,70,72,73,75,77,78,79,80,81,83,84,85,86,87,88,89,90,91},
	{2,3,4,5,6,7,8,9,10,11,12,13,14,15,16,17,18,19,20,21,22,24,25,26,27,28,29,30,31,32,33,34,35,36,37,38,39,40,41,42,43,44,45,46,47,48,49,50,51,52,53,54,55,57,59,60,61,62,63,64,65,66,67,68,69,70,71,72,73,74,75,77,78,79,80,81,82,83,84,85,86,87,88,89,90,91},
	{2,4,8,9,11,13,14,15,17,18,21,22,24,26,27,28,29,31,37,38,39,40,41,44,45,46,50,53,61,63,64,71,79,87,89,90},
	{3,4,6,7,9,10,11,12,13,16,17,18,19,20,21,24,27,28,29,32,34,36,37,40,41,44,45,46,47,48,51,52,53,55,58,59,60,62,63,64,65,66,67,68,69,70,72,73,75,77,78,81,82,84,85,86,87,88,90},
	{2,4,8,9,11,13,14,15,17,18,21,24,26,28,31,37,39,40,41,44,45,50,61,63,64,71,87,89,90},
	{2,5,13,14,20,21,25,26,28,29,30,33,34,35,36,37,39,41,42,43,44,46,48,49,51,52,54,55,59,61,62,64,66,67,68,69,74,75,78,79,80,81,83,84,86,89,91}];
